S = 9;
start = [|27,0,60,0,0,0,0,74,41,75,0,0,0,0,0,0,0,35,59,0,62,52,48,0,0,73,57,0,0,0,0,0,0,81,11,0,0,18,0,0,0,0,30,31,0,47,0,0,0,0,51,0,78,0,0,0,0,0,0,7,0,0,0,0,0,0,0,76,23,0,0,0,0,61,0,0,0,0,72,4,0|
0,0,0,0,0,0,0,55,0,0,0,20,0,0,0,0,27,0,0,0,0,28,0,0,42,44,0,0,0,0,0,0,0,0,0,62,0,0,11,0,0,0,0,60,0,0,0,0,19,8,0,69,0,46,0,0,57,0,0,0,61,14,0,0,0,0,0,15,37,0,0,0,0,0,0,65,16,67,0,0,0|
0,0,0,0,0,0,0,0,6,0,0,54,79,0,0,0,0,43,0,0,0,0,75,0,0,0,0,7,0,0,0,0,0,0,0,0,25,73,0,5,0,0,0,62,66,65,52,61,59,0,0,15,22,21,0,68,0,0,38,8,0,0,0,0,13,0,0,17,0,56,47,0,0,0,0,0,0,0,55,0,0|
0,59,0,0,0,33,0,0,66,0,0,0,0,0,0,5,65,0,0,0,12,0,1,0,76,60,0,28,54,0,0,61,0,0,0,32,52,0,0,38,63,0,10,0,0,0,0,0,0,0,49,57,0,0,0,73,0,0,0,2,31,0,18,0,11,0,0,0,0,43,0,0,6,0,0,0,0,21,0,0,0|
14,0,0,0,0,0,0,19,62,0,56,0,0,0,0,0,0,2,0,0,0,0,0,0,0,0,18,5,0,0,0,0,0,71,42,65,74,0,39,28,0,0,0,35,0,0,0,0,0,0,0,0,24,38,64,0,0,29,27,58,0,0,0,0,55,0,0,81,7,0,0,8,0,49,0,0,0,41,0,0,0|
21,79,0,0,26,0,47,0,0,0,0,0,23,17,0,0,0,0,27,0,16,7,0,0,0,0,14,0,0,0,18,0,0,0,0,74,0,4,0,32,0,0,0,0,0,68,0,70,10,0,0,2,0,0,0,11,0,0,0,0,0,0,0,0,0,0,0,0,0,0,0,65,0,0,0,0,0,19,25,0,0|
0,61,0,0,0,0,0,0,0,0,0,0,40,8,0,0,47,0,3,66,0,51,0,13,54,41,19,0,20,26,64,34,33,0,0,38,70,0,24,65,43,0,0,0,0,48,27,75,60,0,44,0,0,0,81,0,0,36,21,1,71,0,16,0,31,0,0,79,74,2,59,0,0,22,62,0,0,0,0,0,0|
0,0,0,63,0,0,51,44,0,59,12,0,0,0,0,64,0,72,81,0,5,0,0,0,71,65,0,0,0,0,0,0,19,49,80,57,0,22,67,0,56,0,8,0,3,0,0,62,0,28,0,35,0,0,0,78,0,0,0,0,0,30,0,9,0,0,42,68,0,0,0,0,0,0,0,15,0,76,11,29,48|
5,17,65,0,0,28,54,16,0,0,78,7,22,9,0,0,0,0,49,0,0,0,0,53,39,0,0,0,36,23,0,12,0,0,0,10,0,6,34,0,68,0,61,13,0,0,18,50,0,55,0,0,56,0,0,0,0,0,0,0,0,0,0,0,51,0,1,0,0,0,0,0,0,0,0,0,0,0,0,0,44|
0,0,0,51,0,4,0,0,34,48,0,0,0,0,0,62,0,0,0,0,24,0,0,0,40,53,0,78,0,56,0,29,0,0,64,7,0,0,59,0,0,0,0,0,0,60,0,0,0,0,0,0,19,0,0,0,0,12,0,0,72,61,0,22,37,0,0,65,0,0,0,0,0,0,57,0,0,15,0,0,0|
0,0,76,0,5,0,0,77,0,27,0,0,0,0,0,0,0,0,34,0,0,0,52,1,0,38,0,0,0,0,0,0,0,0,0,0,0,29,8,57,6,0,0,0,60,20,62,46,0,67,0,0,0,0,0,71,0,10,50,0,0,0,0,0,0,66,16,56,15,0,55,31,12,0,37,18,35,64,0,65,21|
56,0,0,0,0,9,0,0,13,0,38,0,0,0,0,0,0,0,33,75,50,0,23,27,0,0,0,0,0,0,0,0,0,0,0,0,19,0,0,18,0,0,31,15,0,0,7,0,0,0,0,43,0,37,0,0,0,0,60,0,0,35,63,24,68,79,0,47,0,61,0,0,0,0,0,0,0,0,14,0,8|
16,0,37,40,21,0,0,27,0,23,0,0,0,0,0,0,0,0,0,65,8,0,0,60,0,0,0,0,0,0,0,0,46,0,5,66,0,0,0,49,4,25,0,0,13,0,0,0,0,0,0,0,0,0,0,6,2,0,0,0,74,36,0,58,35,0,0,0,0,78,0,0,50,0,0,0,20,0,31,0,0|
38,0,23,0,0,74,14,12,0,0,0,81,0,0,3,0,9,0,0,2,4,0,0,0,19,0,0,0,17,20,0,0,0,0,0,0,21,0,0,0,30,0,35,36,0,33,0,0,0,0,0,24,66,0,0,29,0,39,0,0,0,73,13,0,77,0,0,54,57,0,34,0,0,78,0,0,0,0,0,0,0|
0,0,80,75,31,65,0,0,39,0,33,0,0,0,0,0,34,0,0,0,0,46,0,0,0,0,0,68,0,0,0,60,23,0,0,54,53,0,0,0,0,0,44,0,81,0,0,0,0,27,69,70,0,8,38,57,37,0,0,0,0,78,55,0,26,0,0,0,3,0,25,0,0,4,0,0,0,0,9,36,0|
0,0,0,0,0,0,0,10,25,4,0,0,0,21,0,43,2,0,5,0,0,0,0,0,0,79,0,0,0,0,3,0,26,0,0,0,65,0,68,24,27,0,0,0,51,36,0,31,0,0,13,50,0,0,0,0,0,0,0,41,62,66,30,0,0,0,0,0,0,0,0,0,0,0,74,0,0,0,0,0,22|
0,0,0,0,0,0,2,0,8,68,54,24,19,0,0,0,15,0,17,0,0,0,0,0,0,0,0,0,0,43,0,0,0,0,6,0,46,72,0,0,0,0,0,0,0,0,0,0,0,0,0,0,14,0,0,1,0,33,0,0,0,0,34,0,7,4,0,13,0,41,0,0,0,0,0,52,0,29,0,0,0|
0,0,0,53,0,0,79,0,0,0,0,0,0,0,0,65,0,8,0,0,41,35,0,0,0,71,0,0,0,80,0,0,0,72,0,0,73,0,0,0,0,0,0,0,0,0,0,0,0,0,3,0,29,0,17,69,0,0,0,0,52,0,0,0,0,76,63,21,30,0,0,0,0,33,19,0,0,0,0,13,0|
36,0,30,0,80,41,0,0,61,0,9,0,0,0,0,0,54,0,0,0,2,0,0,37,27,0,0,0,0,0,0,0,0,0,0,55,13,0,60,64,0,73,0,0,0,0,0,0,70,31,0,45,0,23,0,0,0,17,0,0,0,0,1,0,59,0,0,0,66,0,0,0,0,0,0,0,78,0,0,20,0|
65,64,0,10,0,0,55,0,0,0,0,6,0,0,0,13,0,0,36,0,0,0,0,71,12,40,44,0,0,9,0,73,0,0,0,0,0,0,75,23,0,79,0,0,0,0,0,4,0,0,0,68,0,62,59,5,22,0,0,38,0,0,29,0,0,0,0,0,48,1,0,24,26,46,0,0,0,42,49,0,2|
0,0,4,0,0,15,7,0,18,0,20,33,0,0,0,0,0,80,0,0,61,0,0,64,0,0,0,0,0,0,0,28,37,60,36,59,77,0,0,29,0,0,42,0,0,25,49,0,0,0,0,0,0,0,0,54,0,0,0,0,75,0,11,13,0,0,22,63,0,0,79,0,21,0,0,0,0,0,0,0,0|
0,0,66,0,0,0,74,73,48,57,10,0,47,79,0,0,0,0,0,77,68,42,19,0,0,0,0,0,0,5,81,80,51,0,0,0,0,59,0,39,20,34,28,0,0,0,11,0,0,0,0,29,0,63,60,0,16,9,0,0,33,0,0,0,49,0,0,44,0,0,76,32,0,0,0,24,7,0,3,22,55|
49,0,19,57,0,13,0,0,0,22,0,0,0,0,0,0,0,18,0,54,0,0,0,0,0,0,7,0,0,12,0,0,0,61,70,3,0,0,0,31,0,0,0,0,35,0,42,39,0,0,72,76,0,10,0,0,0,41,0,0,0,0,0,17,0,0,0,26,0,8,0,0,67,58,0,68,0,44,56,0,0|
0,0,14,0,0,72,0,0,0,0,11,50,76,43,0,40,0,28,0,78,0,21,80,0,55,0,0,22,0,0,0,25,0,0,0,68,61,0,0,0,0,27,0,38,0,0,34,33,0,0,59,0,8,0,58,65,0,0,71,0,0,0,0,0,0,0,0,0,70,0,7,42,0,81,9,4,0,0,0,0,0|
0,0,0,45,0,0,0,0,0,0,29,70,67,0,0,78,0,60,0,31,0,0,0,0,0,58,0,0,0,0,0,38,2,42,4,0,0,66,0,41,0,0,47,32,0,0,65,0,22,0,0,0,50,0,35,0,0,0,51,15,7,13,21,11,61,0,10,0,0,0,0,0,30,57,0,0,54,0,0,52,71|
0,0,33,28,75,50,0,0,0,49,0,0,0,7,0,55,19,0,73,0,0,0,25,0,0,0,0,34,0,16,0,40,45,0,10,44,0,3,0,63,71,0,0,0,0,0,0,77,0,0,0,0,81,0,0,0,0,0,0,37,0,32,20,64,0,0,29,0,0,72,0,0,0,0,36,0,0,0,59,0,17|
0,0,0,0,0,60,0,22,29,0,0,52,42,0,31,0,17,0,0,41,0,0,43,0,0,0,66,0,0,35,0,0,50,11,0,0,14,0,0,7,58,0,0,49,55,0,0,0,0,0,0,0,38,0,0,0,0,79,0,0,0,28,0,0,74,0,0,0,0,0,0,0,65,0,16,64,39,0,0,0,63|
80,57,0,54,42,0,0,0,0,0,0,39,70,50,0,0,33,0,60,0,0,56,0,0,69,52,0,0,0,0,7,63,0,0,81,0,55,31,14,67,0,35,13,0,0,0,44,0,0,0,0,0,0,0,0,0,0,0,0,0,8,0,0,0,0,30,0,0,61,5,68,0,71,19,0,0,0,0,79,0,76|
0,14,0,21,38,0,0,0,59,65,0,0,0,0,0,0,0,0,76,0,0,0,0,0,0,11,0,15,0,0,66,0,0,0,0,0,62,70,0,0,0,0,0,12,22,6,2,0,0,25,54,0,34,0,0,0,73,52,0,0,0,0,50,0,0,0,31,60,0,0,0,63,45,0,0,0,0,0,81,0,0|
64,47,0,74,0,0,53,28,65,0,45,0,34,0,0,0,0,0,0,0,59,39,0,70,0,72,15,40,79,0,9,0,0,52,0,0,0,0,19,0,0,38,0,0,0,18,0,32,0,48,0,10,0,29,30,3,0,0,0,0,41,0,0,0,0,71,0,1,0,20,0,66,0,0,0,49,0,0,0,0,0|
25,0,34,0,0,7,0,0,0,0,0,28,68,38,0,0,74,73,0,40,78,0,0,0,0,0,58,71,19,0,0,0,0,0,0,0,64,0,0,0,61,52,0,20,0,0,0,0,66,0,0,53,69,0,0,0,0,0,0,0,0,0,0,55,0,0,0,0,0,0,0,0,0,0,0,39,65,0,0,0,5|
0,0,41,6,11,0,0,15,0,25,0,0,4,54,75,0,79,0,0,0,0,0,0,0,0,0,42,58,0,0,0,16,20,0,0,2,0,48,65,0,0,78,0,0,0,0,0,0,0,70,77,8,60,0,0,0,59,38,0,0,0,0,0,0,0,0,3,0,0,0,0,74,0,0,10,33,0,0,0,0,30|
0,0,77,37,0,0,0,0,0,3,0,0,0,0,0,0,0,0,65,0,74,0,0,38,0,0,0,1,6,75,13,0,0,0,39,0,63,0,33,0,0,0,0,0,15,0,55,0,0,58,0,67,0,0,0,0,0,78,20,0,0,0,0,0,0,0,9,0,0,0,0,0,64,54,14,0,0,35,22,0,0|
0,0,0,0,61,0,0,50,19,0,0,0,59,2,0,0,63,0,0,0,23,0,4,16,0,0,0,74,3,29,0,0,0,0,0,0,0,0,10,0,0,0,0,0,30,17,0,0,0,76,9,0,0,65,36,0,14,0,0,53,40,12,0,49,0,57,0,0,0,7,0,0,0,0,58,72,0,80,0,0,26|
0,0,26,20,0,0,60,0,0,78,0,0,58,0,62,30,0,51,0,0,0,55,0,0,0,0,0,0,32,47,0,5,0,0,0,11,0,0,0,0,0,2,0,0,0,0,3,0,57,0,63,0,27,0,0,0,35,0,75,0,49,74,0,0,0,37,38,0,0,0,0,0,42,68,0,73,0,0,0,0,0|
0,0,0,12,78,0,0,51,0,0,40,37,0,42,0,0,29,0,44,0,0,0,68,0,1,17,0,60,0,0,0,10,57,0,0,27,39,0,0,71,0,0,59,45,0,16,0,0,0,0,0,0,0,0,76,0,58,54,0,0,0,0,2,6,0,0,0,0,11,0,0,0,62,0,48,0,0,0,0,0,0|
0,0,17,0,58,52,0,41,35,42,0,0,75,0,63,0,0,0,0,14,0,0,0,29,65,0,39,0,80,0,38,0,0,0,8,0,0,0,79,0,0,0,0,0,0,0,50,6,0,9,0,59,54,0,0,7,25,0,0,0,0,1,36,23,0,24,47,0,0,32,69,68,34,0,0,0,0,46,15,0,0|
0,0,0,0,44,0,20,0,0,0,0,0,0,0,0,0,0,62,52,53,40,0,63,61,3,4,0,45,0,0,0,15,0,22,31,70,0,25,0,0,0,0,0,26,27,72,39,14,56,13,0,0,0,0,0,0,0,0,33,81,0,0,0,0,41,0,0,0,0,0,0,77,36,0,0,0,0,0,0,0,0|
47,80,0,0,0,0,29,0,0,0,2,0,0,60,0,0,25,30,0,0,0,73,0,0,0,0,0,18,44,1,27,78,0,0,0,0,68,0,0,0,0,32,39,0,0,0,0,0,0,0,36,0,0,22,50,0,0,0,0,0,0,0,0,0,0,0,37,0,0,62,10,6,77,70,0,0,0,9,20,0,57|
0,70,12,0,0,0,0,39,0,0,68,26,0,0,0,0,0,20,0,0,0,0,0,0,0,0,0,46,47,36,17,0,0,37,0,0,29,0,13,0,0,5,0,55,0,0,23,0,0,0,40,0,44,1,16,67,0,0,54,0,0,0,0,57,0,28,75,0,0,4,0,0,0,0,0,62,63,0,0,0,0|
0,7,0,0,0,68,0,0,0,0,0,43,0,0,0,47,39,0,0,34,0,12,0,0,0,0,0,0,0,0,0,54,9,57,0,0,0,23,0,0,0,61,0,0,70,0,0,69,0,73,0,62,0,25,4,37,0,0,24,31,0,0,66,0,0,15,0,74,0,17,1,49,19,0,0,0,0,0,0,45,0|
0,0,57,61,0,0,0,0,0,14,79,48,0,80,18,0,0,0,0,0,0,54,0,0,0,47,76,4,0,0,0,0,0,0,0,0,0,0,0,78,0,60,0,43,49,0,0,0,21,0,70,0,0,42,40,39,0,0,35,74,0,45,72,0,38,11,0,0,0,63,0,0,0,50,0,0,0,0,65,0,69|
0,0,0,0,0,0,9,0,50,0,0,0,0,0,0,0,0,0,0,44,0,0,0,0,37,74,0,0,26,19,25,0,0,0,79,0,0,0,0,0,0,0,6,0,12,0,41,0,0,0,78,52,11,0,20,0,0,0,0,0,0,0,0,0,0,0,0,27,0,0,0,55,0,72,0,0,0,0,0,0,0|
0,0,62,0,0,0,67,63,16,55,61,0,0,0,38,0,0,7,41,27,42,1,24,0,0,0,0,0,0,11,0,0,0,0,43,0,8,0,0,0,0,58,0,19,0,0,77,28,80,37,0,0,33,0,0,44,0,0,0,60,0,6,75,73,0,0,0,0,0,0,0,0,0,0,0,0,0,0,0,0,79|
43,72,6,0,19,0,23,0,30,0,0,0,0,37,5,0,52,0,0,0,0,0,0,59,0,51,0,76,64,0,0,41,73,0,49,50,22,65,0,15,0,0,0,4,0,0,46,0,0,0,0,48,0,24,0,0,0,0,77,0,79,0,42,16,45,13,0,9,33,26,0,0,0,28,0,0,29,11,12,0,25|
0,0,0,0,54,18,0,0,0,50,0,0,7,57,42,9,0,46,0,0,0,37,74,52,60,0,49,0,0,10,0,0,11,0,40,16,33,0,0,0,22,0,81,0,0,39,0,59,0,79,0,0,0,0,0,0,19,28,4,69,17,0,0,34,0,0,0,0,0,0,62,0,5,0,41,0,0,51,0,0,65|
0,25,0,1,0,0,0,13,17,0,0,0,49,0,0,0,81,4,0,0,0,40,0,0,0,0,0,0,0,22,0,51,12,0,52,73,0,0,28,0,0,0,0,0,5,2,75,0,44,0,0,0,0,48,0,0,0,37,0,0,45,0,0,79,0,0,57,0,0,0,0,0,0,36,30,50,34,0,0,0,16|
41,34,0,0,0,37,78,0,28,0,51,62,1,0,0,38,0,0,0,25,70,65,55,0,0,66,0,0,0,42,0,71,0,0,0,67,43,0,47,0,0,0,0,0,0,77,0,0,0,0,0,0,0,0,0,52,50,0,10,35,6,27,58,0,0,0,0,16,0,11,0,45,0,53,0,0,0,0,33,26,15|
0,10,0,0,0,76,0,0,0,0,0,0,0,34,0,75,28,0,0,48,72,0,0,0,0,1,0,0,0,0,0,74,21,0,0,0,0,0,0,73,49,0,0,0,0,62,53,0,0,0,27,16,0,58,0,2,0,0,0,0,0,0,3,0,32,0,0,0,8,0,60,0,0,0,54,35,79,0,39,0,0|
0,12,16,0,0,0,43,0,69,0,0,0,3,32,0,73,61,0,0,24,0,0,0,0,44,0,0,0,0,0,0,0,0,5,0,0,0,52,36,0,0,68,0,6,0,0,31,0,28,0,0,49,80,0,11,21,0,0,0,0,0,0,0,0,0,0,0,0,0,0,48,0,0,0,0,74,57,81,71,0,0|
23,0,0,0,72,19,73,49,0,0,0,0,0,0,0,0,71,13,62,32,0,0,77,5,0,0,0,0,0,30,47,0,63,41,58,15,50,0,7,3,1,39,0,0,0,0,60,45,74,18,11,0,36,0,0,79,0,0,76,0,0,0,70,0,0,0,0,0,0,0,0,54,0,0,0,0,0,48,0,0,0|
0,32,0,65,59,35,45,0,4,0,0,0,0,0,0,77,26,0,79,0,0,34,0,39,16,33,0,0,0,69,0,0,0,0,0,0,0,0,0,0,57,0,0,42,0,0,64,0,0,29,0,0,0,0,0,0,0,7,0,0,0,0,51,0,75,0,73,50,0,49,31,0,76,0,0,0,0,2,0,0,0|
0,44,5,0,0,0,0,0,0,20,43,0,31,27,8,0,30,40,64,0,57,15,0,0,0,10,0,0,35,34,0,0,0,0,0,36,2,51,0,0,37,67,0,65,32,0,0,0,0,7,0,0,12,0,0,62,0,59,16,0,53,0,61,0,0,0,6,66,0,0,0,0,22,0,42,75,72,14,0,0,47|
0,0,0,66,68,0,0,47,0,54,0,18,0,0,56,37,0,0,0,11,0,0,0,0,0,0,0,0,72,0,0,0,17,0,0,0,24,0,0,0,0,62,74,9,0,0,10,42,0,6,0,34,0,0,75,0,36,81,57,0,0,41,31,35,0,58,0,0,0,0,0,21,0,0,0,40,0,0,8,0,0|
0,33,0,0,0,56,0,0,23,38,0,0,0,0,72,0,51,0,42,0,54,0,0,0,0,0,0,0,0,0,0,0,0,0,66,48,59,0,0,22,53,15,0,0,0,0,35,21,0,32,0,0,0,43,0,0,0,4,25,0,0,0,0,3,0,0,0,0,68,37,0,0,0,0,0,76,0,75,0,67,0|
0,0,59,0,8,0,0,0,26,0,34,0,54,0,70,0,0,0,0,58,0,62,0,0,53,0,16,0,21,52,0,0,38,0,63,0,0,13,0,0,0,0,0,0,37,0,0,17,0,0,48,0,0,0,0,15,78,6,0,0,0,5,0,0,43,35,40,0,36,66,0,0,0,0,0,25,0,22,0,0,0|
0,28,0,16,63,0,75,71,37,0,0,0,0,0,0,0,0,10,19,0,0,31,0,0,36,0,52,0,78,0,15,0,70,0,0,0,0,43,0,0,0,0,0,46,0,0,22,0,4,0,2,47,0,0,0,0,0,0,12,0,0,20,0,0,69,8,0,0,54,0,0,0,0,6,13,0,0,0,44,9,56|
76,0,0,0,40,0,0,0,0,47,0,5,0,0,0,0,0,69,38,0,0,11,50,0,0,18,0,75,81,57,74,0,0,46,0,0,0,0,0,0,0,0,0,0,0,14,19,0,0,0,0,1,0,7,53,0,27,61,0,0,2,23,48,0,22,0,0,73,0,0,0,16,0,0,0,71,0,20,0,0,0|
0,0,46,0,0,66,0,0,24,37,42,76,11,0,0,0,35,0,0,63,21,77,65,0,56,0,0,64,16,7,0,0,0,31,69,0,54,0,0,19,0,0,0,0,0,55,0,0,0,0,53,0,0,18,0,0,0,0,58,0,0,62,0,0,72,0,0,38,0,70,0,59,0,48,50,0,0,0,0,30,28|
0,67,72,0,0,0,0,0,74,0,0,75,0,31,0,0,0,0,0,0,0,0,0,0,47,0,13,0,56,61,10,0,41,20,0,4,12,64,0,70,0,0,0,0,38,49,0,0,0,0,0,25,0,0,0,0,0,0,0,55,11,0,35,76,17,0,27,48,52,0,0,0,0,1,0,57,81,0,0,59,60|
50,35,44,52,27,0,22,32,0,77,25,0,0,0,0,0,0,0,0,0,0,0,0,0,14,0,3,0,11,76,0,0,0,2,0,0,42,0,0,0,62,0,0,0,0,13,0,20,30,0,0,0,75,0,0,81,31,0,0,17,0,0,0,12,0,0,0,71,45,58,0,0,38,15,0,0,24,0,0,18,0|
0,0,0,0,0,0,0,0,0,39,0,0,2,0,0,0,22,0,0,0,0,68,0,0,35,0,0,42,0,49,0,0,55,0,0,0,31,0,0,48,65,81,18,3,0,0,0,78,0,0,0,0,76,0,44,60,0,57,0,66,63,54,38,0,0,75,77,0,0,0,13,56,0,43,17,0,8,0,0,32,0|
17,0,0,42,0,0,0,0,0,29,26,0,0,0,78,0,0,48,0,70,30,0,60,0,0,0,0,0,0,0,0,0,18,43,0,0,47,0,0,0,0,0,0,0,0,0,5,65,0,0,52,0,0,0,34,0,64,0,45,0,0,0,0,0,9,55,0,57,0,53,0,0,0,66,31,80,0,33,16,0,62|
0,0,0,0,0,47,70,0,0,0,0,0,55,0,0,44,0,0,2,0,0,0,0,54,0,0,80,72,34,0,0,0,0,64,0,0,0,0,0,59,0,0,0,0,4,0,37,49,0,77,0,0,0,0,0,0,0,0,52,0,0,0,0,0,0,68,0,58,17,0,0,0,0,0,0,0,0,0,0,0,0|
0,50,0,0,28,21,0,0,0,0,35,59,37,0,0,0,0,56,0,1,0,0,0,0,0,0,0,0,0,39,0,45,0,0,0,0,0,0,40,62,78,0,34,0,29,11,32,0,23,0,8,0,67,69,5,63,0,0,0,22,0,0,0,47,0,7,0,0,0,0,0,0,0,0,0,0,0,0,0,80,0|
0,0,0,0,45,40,80,0,0,0,0,0,63,0,0,8,75,57,0,79,0,0,0,0,0,76,0,61,0,0,0,22,0,0,0,0,0,0,0,68,44,0,19,39,52,51,0,0,0,38,0,0,13,73,70,0,0,0,0,71,0,46,14,10,6,0,24,0,0,0,35,0,81,0,65,0,0,0,67,0,0|
0,0,0,0,0,0,0,0,0,0,48,61,0,0,54,0,0,52,0,0,44,0,0,0,0,8,65,0,49,40,0,0,0,0,0,46,0,0,0,0,25,0,22,47,31,0,16,0,0,0,50,0,55,0,80,0,0,0,0,73,0,75,7,30,0,0,0,0,0,79,27,0,0,0,0,6,0,0,0,0,41|
0,5,0,0,0,43,0,79,0,0,0,0,0,0,0,0,0,0,0,0,71,0,0,0,62,0,0,0,0,81,0,0,36,0,68,0,0,0,0,0,3,0,0,0,0,0,1,0,0,78,0,0,0,19,0,0,0,53,0,0,69,0,67,0,0,74,51,0,0,75,0,0,0,0,0,44,22,0,38,0,72|
0,0,0,0,0,0,0,0,0,0,0,51,0,73,0,0,49,3,32,47,52,0,0,0,0,0,0,0,60,0,0,0,0,19,0,79,0,0,0,61,0,0,0,57,0,80,0,0,0,0,28,0,0,76,78,33,62,27,0,65,10,0,0,0,1,0,71,0,0,0,4,0,0,0,0,53,0,36,35,43,0|
0,0,0,0,0,0,0,14,58,0,47,65,0,0,0,36,31,21,40,0,46,0,0,0,33,0,51,0,0,55,63,0,0,0,0,0,0,32,0,0,0,0,0,0,0,29,0,0,34,0,0,0,0,70,0,0,0,13,9,45,66,0,25,37,54,0,0,0,0,0,0,0,75,0,0,17,0,0,0,0,0|
0,0,0,0,0,0,0,0,0,0,0,1,39,0,0,0,0,22,0,0,0,0,10,42,0,81,0,65,7,0,0,0,52,0,0,0,67,28,80,0,45,0,0,0,0,35,9,64,0,0,0,66,0,59,0,8,38,0,0,61,0,3,0,0,0,0,72,0,0,0,0,40,0,0,0,5,0,0,29,0,0|
63,0,73,30,39,0,0,0,68,0,32,0,0,0,29,0,24,38,0,0,0,75,27,0,0,67,37,0,0,0,0,0,13,0,51,0,66,0,0,2,70,0,0,0,0,0,0,0,0,21,6,0,0,0,1,35,0,0,0,0,0,42,0,80,0,0,0,0,53,0,45,0,25,0,0,0,0,71,46,0,0|
0,62,49,0,35,6,0,0,0,13,0,0,0,0,0,66,0,0,11,56,0,0,0,47,0,0,0,0,0,60,0,64,68,0,73,0,0,0,1,0,0,0,43,63,0,0,61,0,18,0,0,0,4,80,15,0,0,0,0,0,0,0,59,7,0,22,0,77,0,0,0,0,57,0,0,0,0,0,70,51,0|
0,23,0,0,56,75,0,0,0,0,0,45,0,0,0,68,72,0,31,0,0,0,0,8,0,0,53,0,0,15,0,33,44,0,62,0,0,37,58,0,0,51,32,0,26,0,0,9,0,0,0,77,0,0,0,22,61,0,0,0,0,0,0,0,0,81,0,69,41,0,0,0,0,65,0,0,0,0,73,0,18|
74,0,0,0,0,0,59,45,0,0,15,0,0,4,0,0,0,0,0,71,0,0,49,0,0,35,0,0,28,0,67,0,27,17,0,1,18,0,0,0,2,0,5,0,0,0,0,26,0,0,24,11,52,0,0,0,0,75,0,0,0,0,81,68,0,0,20,0,0,0,21,72,10,0,29,0,55,0,43,0,0|
3,0,0,0,24,0,46,17,0,0,6,0,0,0,0,22,0,0,0,0,0,16,0,0,0,0,0,39,0,0,0,58,0,0,0,9,0,0,0,0,0,0,0,33,74,71,14,0,0,59,0,0,0,36,12,0,32,5,56,0,0,0,43,0,10,44,0,53,0,55,0,0,52,20,0,47,0,0,40,0,0|
0,13,58,0,0,0,0,0,71,0,62,40,44,0,32,59,5,0,43,0,15,0,0,0,0,0,34,0,0,0,42,21,0,0,18,0,0,24,73,0,0,0,0,0,0,0,45,76,72,49,0,0,0,78,0,0,1,23,48,0,0,0,68,0,52,61,0,0,60,35,0,75,0,0,28,0,0,30,0,0,0|
0,41,32,0,65,0,0,48,0,0,0,0,0,0,0,0,0,0,39,0,0,0,0,55,0,0,0,0,0,0,0,0,0,0,0,0,27,30,0,13,0,57,0,34,53,69,54,56,0,0,0,0,0,64,3,0,8,0,0,0,25,0,37,0,0,0,0,0,0,0,0,0,80,26,0,0,60,0,0,0,0|
0,0,0,0,0,0,0,0,0,0,0,0,0,0,0,0,3,0,0,29,0,0,40,51,0,0,62,0,66,63,0,0,0,74,34,0,79,10,0,0,0,76,25,23,61,50,0,41,0,0,0,0,0,0,0,0,0,0,0,0,0,0,0,0,30,2,13,0,26,0,19,0,0,0,0,0,0,69,45,81,42|
0,0,0,0,12,61,0,0,15,0,18,30,0,0,74,0,0,0,0,19,0,26,38,10,0,32,0,81,0,8,2,72,0,13,0,0,56,55,64,0,0,0,0,50,62,0,0,0,47,68,22,63,0,0,0,0,0,0,0,0,0,0,0,14,0,0,0,0,0,42,6,0,0,0,0,0,0,3,0,0,31|
54,20,0,0,0,0,69,5,0,0,0,0,0,0,17,60,0,0,46,0,63,0,0,28,0,0,0,0,25,0,78,3,0,23,0,26,0,0,22,21,0,0,0,0,0,0,57,51,0,43,55,19,0,0,45,0,13,0,0,42,73,0,0,0,0,0,0,32,16,0,0,64,0,0,0,0,6,50,74,14,35|];